Maximize

2 x_0 + 2 x_1 + 4 x_2 + 0 x_3 + 2 x_4 + 0 x_5 + 3 x_6 + 2 x_7 + 1 x_8 + 0 x_9 + 1 x_10 + 4 x_11 + 2 x_12 + 4 x_13 + 3 x_14 + 1 x_15 + 3 x_16 + 3 x_17 + 0 x_18 + 2 x_19 + 0 x_20 + 0 x_21 + 4 x_22 + 2 x_23 + 1 x_24 + 4 x_25 + 0 x_26 + 4 x_27 + 4 x_28 + 2 x_29 + 4 x_30 + 2 x_31 + 1 x_32 + 1 x_33 + 4 x_34 + 4 x_35 + 4 x_36 + 3 x_37 + 3 x_38 + 4 x_39 + 1 x_40 + 2 x_41 + 0 x_42 + 2 x_43 + 1 x_44 + 3 x_45 + 4 x_46 + 2 x_47 + 4 x_48 + 1 x_49


Subject To

a0: 0 x_0 + 0 x_1 + 0 x_2 + 1 x_3 + 0 x_4 + 0 x_5 + 0 x_6 + 0 x_7 + 0 x_8 + 0 x_9 + 0 x_10 + 0 x_11 + 0 x_12 + 0 x_13 + 0 x_14 + 1 x_15 + 0 x_16 + 0 x_17 + 0 x_18 + 0 x_19 + 1 x_20 + 0 x_21 + 1 x_22 + 0 x_23 + 0 x_24 + 0 x_25 + 1 x_26 + 0 x_27 + 0 x_28 + 0 x_29 + 0 x_30 + 0 x_31 + 0 x_32 + 0 x_33 + 0 x_34 + 0 x_35 + 1 x_36 + 0 x_37 + 0 x_38 + 0 x_39 + 0 x_40 + 0 x_41 + 0 x_42 + 1 x_43 + 0 x_44 + 0 x_45 + 0 x_46 + 0 x_47 + 0 x_48 + 0 x_49 >= 1
a1: 0 x_0 + 0 x_1 + 1 x_2 + 0 x_3 + 0 x_4 + 0 x_5 + 0 x_6 + 0 x_7 + 1 x_8 + 0 x_9 + 0 x_10 + 0 x_11 + 0 x_12 + 0 x_13 + 0 x_14 + 0 x_15 + 1 x_16 + 0 x_17 + 0 x_18 + 0 x_19 + 0 x_20 + 0 x_21 + 1 x_22 + 0 x_23 + 0 x_24 + 0 x_25 + 0 x_26 + 0 x_27 + 0 x_28 + 0 x_29 + 1 x_30 + 0 x_31 + 1 x_32 + 0 x_33 + 1 x_34 + 0 x_35 + 0 x_36 + 1 x_37 + 1 x_38 + 0 x_39 + 0 x_40 + 0 x_41 + 0 x_42 + 0 x_43 + 1 x_44 + 0 x_45 + 0 x_46 + 0 x_47 + 1 x_48 + 1 x_49 >= 1
a2: 0 x_0 + 0 x_1 + 0 x_2 + 0 x_3 + 0 x_4 + 0 x_5 + 1 x_6 + 1 x_7 + 0 x_8 + 0 x_9 + 0 x_10 + 0 x_11 + 0 x_12 + 1 x_13 + 0 x_14 + 0 x_15 + 1 x_16 + 0 x_17 + 0 x_18 + 0 x_19 + 0 x_20 + 0 x_21 + 0 x_22 + 0 x_23 + 0 x_24 + 0 x_25 + 1 x_26 + 1 x_27 + 1 x_28 + 0 x_29 + 1 x_30 + 0 x_31 + 0 x_32 + 0 x_33 + 0 x_34 + 0 x_35 + 0 x_36 + 0 x_37 + 0 x_38 + 0 x_39 + 0 x_40 + 1 x_41 + 0 x_42 + 0 x_43 + 0 x_44 + 0 x_45 + 0 x_46 + 0 x_47 + 0 x_48 + 1 x_49 >= 1
a3: 0 x_0 + 0 x_1 + 0 x_2 + 1 x_3 + 1 x_4 + 1 x_5 + 1 x_6 + 0 x_7 + 1 x_8 + 0 x_9 + 0 x_10 + 0 x_11 + 1 x_12 + 0 x_13 + 0 x_14 + 0 x_15 + 0 x_16 + 0 x_17 + 0 x_18 + 0 x_19 + 0 x_20 + 0 x_21 + 0 x_22 + 0 x_23 + 0 x_24 + 1 x_25 + 0 x_26 + 0 x_27 + 0 x_28 + 0 x_29 + 0 x_30 + 1 x_31 + 0 x_32 + 1 x_33 + 0 x_34 + 0 x_35 + 0 x_36 + 0 x_37 + 0 x_38 + 0 x_39 + 1 x_40 + 0 x_41 + 0 x_42 + 0 x_43 + 0 x_44 + 0 x_45 + 0 x_46 + 0 x_47 + 0 x_48 + 0 x_49 >= 1
a4: 0 x_0 + 0 x_1 + 1 x_2 + 0 x_3 + 0 x_4 + 0 x_5 + 0 x_6 + 0 x_7 + 0 x_8 + 0 x_9 + 0 x_10 + 0 x_11 + 0 x_12 + 0 x_13 + 0 x_14 + 0 x_15 + 1 x_16 + 0 x_17 + 0 x_18 + 0 x_19 + 1 x_20 + 0 x_21 + 0 x_22 + 0 x_23 + 0 x_24 + 0 x_25 + 0 x_26 + 1 x_27 + 0 x_28 + 0 x_29 + 0 x_30 + 0 x_31 + 0 x_32 + 0 x_33 + 0 x_34 + 0 x_35 + 0 x_36 + 0 x_37 + 0 x_38 + 1 x_39 + 1 x_40 + 1 x_41 + 1 x_42 + 0 x_43 + 1 x_44 + 0 x_45 + 1 x_46 + 0 x_47 + 0 x_48 + 0 x_49 >= 1
a5: 0 x_0 + 0 x_1 + 0 x_2 + 1 x_3 + 0 x_4 + 1 x_5 + 0 x_6 + 0 x_7 + 0 x_8 + 0 x_9 + 0 x_10 + 0 x_11 + 0 x_12 + 0 x_13 + 0 x_14 + 1 x_15 + 0 x_16 + 0 x_17 + 1 x_18 + 0 x_19 + 0 x_20 + 0 x_21 + 1 x_22 + 0 x_23 + 0 x_24 + 0 x_25 + 0 x_26 + 0 x_27 + 0 x_28 + 0 x_29 + 0 x_30 + 0 x_31 + 0 x_32 + 0 x_33 + 0 x_34 + 0 x_35 + 0 x_36 + 0 x_37 + 0 x_38 + 1 x_39 + 0 x_40 + 0 x_41 + 1 x_42 + 0 x_43 + 0 x_44 + 0 x_45 + 0 x_46 + 0 x_47 + 0 x_48 + 0 x_49 >= 1
b0: x_0 + x_16 <= 1
b1: x_0 + x_31 <= 1
b2: x_0 + x_48 <= 1
b3: x_1 + x_8 <= 1
b4: x_1 + x_9 <= 1
b5: x_1 + x_11 <= 1
b6: x_1 + x_34 <= 1
b7: x_2 + x_25 <= 1
b8: x_3 + x_38 <= 1
b9: x_4 + x_19 <= 1
b10: x_4 + x_25 <= 1
b11: x_4 + x_42 <= 1
b12: x_4 + x_48 <= 1
b13: x_5 + x_30 <= 1
b14: x_5 + x_41 <= 1
b15: x_5 + x_43 <= 1
b16: x_6 + x_35 <= 1
b17: x_7 + x_18 <= 1
b18: x_8 + x_1 <= 1
b19: x_8 + x_28 <= 1
b20: x_9 + x_1 <= 1
b21: x_9 + x_10 <= 1
b22: x_9 + x_15 <= 1
b23: x_9 + x_45 <= 1
b24: x_10 + x_9 <= 1
b25: x_11 + x_1 <= 1
b26: x_11 + x_19 <= 1
b27: x_11 + x_22 <= 1
b28: x_12 + x_33 <= 1
b29: x_12 + x_40 <= 1
b30: x_13 + x_39 <= 1
b31: x_13 + x_44 <= 1
b32: x_14 + x_16 <= 1
b33: x_14 + x_44 <= 1
b34: x_15 + x_9 <= 1
b35: x_15 + x_47 <= 1
b36: x_16 + x_0 <= 1
b37: x_16 + x_14 <= 1
b38: x_17 + x_24 <= 1
b39: x_18 + x_7 <= 1
b40: x_18 + x_26 <= 1
b41: x_19 + x_4 <= 1
b42: x_19 + x_11 <= 1
b43: x_20 + x_32 <= 1
b44: x_20 + x_45 <= 1
b45: x_21 + x_24 <= 1
b46: x_21 + x_35 <= 1
b47: x_22 + x_11 <= 1
b48: x_22 + x_38 <= 1
b49: x_23 + x_34 <= 1
b50: x_24 + x_17 <= 1
b51: x_24 + x_21 <= 1
b52: x_25 + x_2 <= 1
b53: x_25 + x_4 <= 1
b54: x_25 + x_30 <= 1
b55: x_26 + x_18 <= 1
b56: x_26 + x_32 <= 1
b57: x_27 + x_40 <= 1
b58: x_28 + x_8 <= 1
b59: x_29 + x_35 <= 1
b60: x_30 + x_5 <= 1
b61: x_30 + x_25 <= 1
b62: x_31 + x_0 <= 1
b63: x_32 + x_20 <= 1
b64: x_32 + x_26 <= 1
b65: x_33 + x_12 <= 1
b66: x_34 + x_1 <= 1
b67: x_34 + x_23 <= 1
b68: x_35 + x_6 <= 1
b69: x_35 + x_21 <= 1
b70: x_35 + x_29 <= 1
b71: x_35 + x_36 <= 1
b72: x_36 + x_35 <= 1
b73: x_36 + x_45 <= 1
b74: x_37 + x_46 <= 1
b75: x_37 + x_48 <= 1
b76: x_38 + x_3 <= 1
b77: x_38 + x_22 <= 1
b78: x_39 + x_13 <= 1
b79: x_40 + x_12 <= 1
b80: x_40 + x_27 <= 1
b81: x_40 + x_43 <= 1
b82: x_41 + x_5 <= 1
b83: x_41 + x_47 <= 1
b84: x_42 + x_4 <= 1
b85: x_43 + x_5 <= 1
b86: x_43 + x_40 <= 1
b87: x_44 + x_13 <= 1
b88: x_44 + x_14 <= 1
b89: x_45 + x_9 <= 1
b90: x_45 + x_20 <= 1
b91: x_45 + x_36 <= 1
b92: x_46 + x_37 <= 1
b93: x_47 + x_15 <= 1
b94: x_47 + x_41 <= 1
b95: x_48 + x_0 <= 1
b96: x_48 + x_4 <= 1
b97: x_48 + x_37 <= 1
b98: x_48 + x_49 <= 1
b99: x_49 + x_48 <= 1
c0: 1573.4 x_0 + 1125.2 x_1 + 1560.3 x_2 + 1211.2 x_3 + 1079.5 x_4 + 1014.2 x_5 + 1815.8 x_6 + 1260.1 x_7 + 1502.1 x_8 + 1405.0 x_9 + 1254.1 x_10 + 1272.8 x_11 + 1590.0 x_12 + 1281.1 x_13 + 1013.3 x_14 + 1798.2 x_15 + 1829.7 x_16 + 1074.3 x_17 + 1548.2 x_18 + 1314.6 x_19 + 1619.3 x_20 + 1637.0 x_21 + 1236.7 x_22 + 1285.6 x_23 + 1542.6 x_24 + 1856.4 x_25 + 1379.3 x_26 + 1806.3 x_27 + 1021.7 x_28 + 1926.7 x_29 + 1374.8 x_30 + 1119.1 x_31 + 1434.7 x_32 + 1936.1 x_33 + 1390.2 x_34 + 1277.0 x_35 + 1307.7 x_36 + 1036.7 x_37 + 1605.3 x_38 + 1704.1 x_39 + 1436.1 x_40 + 1043.4 x_41 + 1089.6 x_42 + 1337.9 x_43 + 1748.1 x_44 + 1856.1 x_45 + 1562.9 x_46 + 1450.9 x_47 + 1407.5 x_48 + 1617.5 x_49 <= 12686




Binary

x_0 x_1 x_2 x_3 x_4 x_5 x_6 x_7 x_8 x_9 x_10 x_11 x_12 x_13 x_14 x_15 x_16 x_17 x_18 x_19 x_20 x_21 x_22 x_23 x_24 x_25 x_26 x_27 x_28 x_29 x_30 x_31 x_32 x_33 x_34 x_35 x_36 x_37 x_38 x_39 x_40 x_41 x_42 x_43 x_44 x_45 x_46 x_47 x_48 x_49

 


End
